p cnf 150 240
99 -51 -12 0
27 -86 -90 0
-57 -22 -123 0
29 39 9 0
92 -96 -140 0
39 -133 34 0
62 14 130 0
72 138 38 0
140 -104 40 0
-57 -88 -82 0
50 123 -76 0
-137 91 -82 0
91 -129 -137 0
-111 27 58 0
30 -103 87 0
137 -1 -23 0
11 15 23 0
-58 -99 -38 0
-12 39 143 0
139 -149 55 0
117 75 96 0
59 60 -2 0
24 -106 -69 0
-69 26 134 0
-111 140 -95 0
-116 87 12 0
69 73 88 0
-134 126 -142 0
79 -149 -16 0
74 -16 -139 0
78 53 149 0
-107 22 128 0
-103 -102 -46 0
24 95 -111 0
-107 33 148 0
12 24 142 0
-21 -77 -33 0
-2 100 -6 0
117 25 -148 0
-104 73 -43 0
52 -65 -84 0
-128 20 -57 0
-63 14 -137 0
-64 45 -105 0
48 10 106 0
-141 73 42 0
96 53 46 0
5 -16 115 0
42 -46 68 0
9 147 129 0
64 142 17 0
-62 -64 42 0
-75 42 91 0
-28 90 -21 0
-104 -125 10 0
-133 16 -60 0
-129 -58 34 0
-88 100 79 0
-74 -15 -9 0
-106 -60 -67 0
-82 -135 45 0
-68 46 97 0
-30 139 -53 0
135 46 73 0
88 16 -136 0
102 -16 -122 0
128 -48 -54 0
71 -58 89 0
2 -58 -119 0
25 55 -147 0
47 44 137 0
148 58 113 0
32 -68 74 0
104 36 37 0
-5 -66 2 0
-85 -60 -67 0
-74 -147 -117 0
-118 143 81 0
38 86 75 0
-35 98 -127 0
90 71 68 0
70 -58 74 0
-2 -100 -128 0
-70 -103 -10 0
43 134 -123 0
42 -77 -148 0
141 -58 -1 0
-9 -2 -136 0
115 35 -14 0
-117 -116 -30 0
90 -112 -63 0
79 47 80 0
-83 -112 -100 0
140 12 110 0
-118 54 -39 0
-123 -131 -147 0
-20 -78 -126 0
-99 -77 -35 0
-44 74 -5 0
-119 135 36 0
-24 -133 125 0
113 84 -3 0
-62 99 34 0
-59 -132 5 0
-37 35 -126 0
-29 110 116 0
-144 1 -117 0
5 14 24 0
149 -102 59 0
-108 -34 -85 0
66 -59 50 0
120 -134 -16 0
-148 -110 -35 0
126 -144 -92 0
137 -39 -56 0
117 79 -90 0
19 -59 17 0
-53 -136 -8 0
36 -137 -140 0
-83 9 49 0
8 110 15 0
-97 -33 -123 0
-20 -9 57 0
-68 76 112 0
-11 -43 130 0
80 30 101 0
130 -29 -39 0
46 -36 150 0
-24 -85 -84 0
104 -5 -126 0
136 73 -99 0
49 -42 35 0
53 80 -17 0
97 -46 -11 0
78 44 24 0
110 92 -102 0
109 -89 -149 0
-74 77 35 0
-64 113 44 0
-111 -59 71 0
103 -86 -19 0
77 -112 130 0
-116 -51 80 0
80 -84 -89 0
139 -145 97 0
116 78 23 0
126 -95 137 0
95 26 48 0
141 88 -79 0
11 -58 52 0
x -2 -4 -5 -9 -11 -14 -15 -16 -18 -21 22 -23 29 -30 -31 -33 -34 35 38 39 -40 43 -48 51 54 -55 -57 60 -61 -62 63 65 -67 68 -69 76 77 78 81 82 -83 -85 -86 -87 92 93 95 99 100 -102 -103 -104 106 -108 -111 112 114 -116 117 -121 -122 123 -124 125 126 -130 -131 -135 -141 -144 145 -147 -149 150 0
x -1 -2 -5 6 -8 10 -11 12 16 -18 22 23 25 -29 30 33 34 -35 -37 39 40 41 -42 -43 47 48 -50 -52 53 57 58 -60 -62 63 -65 68 70 -75 79 80 -85 89 -90 91 95 96 97 -98 -100 102 104 -105 107 108 115 116 -118 119 -121 -122 123 -124 -125 -126 -127 129 132 -138 -139 140 142 -146 -147 -150 0
x 1 -2 3 -4 -5 -9 -16 17 -20 -23 25 27 -30 -32 33 34 -35 -36 38 40 42 44 -47 -48 -49 -51 -52 -53 55 -57 61 -62 -65 68 69 -71 72 73 -76 -78 79 80 82 84 85 -86 -87 -89 -90 -92 -94 -95 -96 97 98 101 -104 -105 -109 112 113 -114 115 116 -119 123 124 128 131 -135 -136 137 138 -140 -141 142 -143 146 -148 150 0
x 11 -12 13 19 22 -23 -24 -26 -28 -30 -31 32 -34 -35 39 40 42 45 -47 -48 -49 -50 -52 -53 54 56 -58 60 61 -62 64 -67 -69 -70 -71 72 -74 -79 81 82 -85 -86 -87 -88 -89 90 -91 -92 -94 95 98 -100 104 106 -109 -113 -115 -116 118 122 -125 128 134 135 -137 -138 140 141 -142 145 -146 150 0
x 2 3 4 6 7 -9 14 17 -18 -19 20 21 22 -24 25 26 29 32 -34 -35 -37 41 -43 -46 47 -48 51 -52 -57 -61 -63 -65 -69 -70 -71 -72 74 -75 80 -84 85 -86 -87 -88 90 -92 96 98 -101 103 105 -106 -107 -108 -109 110 -111 -112 114 -115 -118 -119 120 -121 122 -127 -128 129 -130 131 133 134 -135 -137 -138 -140 141 143 -144 -147 0
x 3 -6 -15 -17 18 21 22 24 25 26 -27 -30 -31 -32 -35 -38 -39 40 -42 43 45 -46 -47 48 50 51 52 -53 56 -57 -58 61 71 -72 -73 -74 78 -82 83 84 85 87 89 93 -94 -97 -98 -99 100 101 102 -105 -108 109 -111 -113 -114 116 117 118 119 120 -121 -122 -123 -129 130 -132 -133 -134 135 137 -138 140 141 142 -143 145 146 -148 -149 0
x -1 3 5 7 -9 -11 -12 -13 16 -17 -18 -19 22 23 24 26 27 31 -32 37 38 -40 -42 44 45 -47 48 49 50 -54 -56 59 -60 61 63 64 68 -70 -72 73 -75 76 -77 78 86 87 -91 93 94 95 98 -99 100 -101 103 -104 109 110 114 -115 -116 -118 119 121 123 124 125 131 134 139 141 143 146 147 -148 0
x 1 -2 4 5 -6 7 9 -10 -11 13 14 -17 20 -21 22 23 26 -28 -29 -31 32 -33 -34 35 41 42 -43 -45 -48 49 -50 -52 53 54 55 56 -59 60 -62 -63 64 66 -67 -70 -71 -73 75 -77 -83 84 85 -86 89 -90 92 93 96 -98 -100 101 -105 108 -109 110 111 112 114 117 118 119 -121 -122 -123 -125 -128 -130 -132 136 -139 -141 142 145 -148 -150 0
x -1 2 -5 6 -8 10 -13 -15 16 -17 -18 20 22 -23 24 28 -29 -31 -34 35 36 38 44 -50 51 53 54 55 56 58 59 60 62 -63 -65 68 -69 71 -80 82 -85 -86 -89 -92 93 95 97 -99 -103 -110 -111 -114 -115 116 117 118 -123 125 -126 127 -128 -129 -135 -138 139 -141 143 -144 145 146 -147 0
x -2 -4 8 14 15 17 -18 19 20 -26 -27 -30 -31 34 35 38 -40 -43 45 -49 -52 -54 56 -58 -62 64 67 -68 -70 -71 73 74 -75 -79 -80 -81 -84 85 -87 -89 91 93 94 -99 101 -103 105 107 110 -112 -116 -117 119 120 122 124 -126 -127 -128 129 131 -132 -135 137 -143 144 -147 -149 0
x -1 -5 7 -8 10 12 -13 -17 18 -20 -21 24 25 26 -29 -32 35 -36 37 38 -40 -41 -42 -44 49 -51 -52 55 61 -62 63 65 66 68 -70 -71 74 -75 77 80 -85 86 87 88 89 92 93 95 -98 99 102 -103 -105 106 108 -109 110 113 114 -116 -118 -121 122 -125 126 127 -128 129 -131 -135 -137 -138 -139 -147 -149 -150 0
x -1 2 4 7 10 11 12 15 17 -19 25 -26 27 28 31 32 33 -41 42 45 46 47 -48 -50 -51 -53 -55 61 63 -64 66 67 -69 -70 -74 -78 -79 82 -85 88 89 -90 -91 92 -93 -94 -96 97 99 -100 101 -103 -104 106 -112 113 114 -115 123 134 -135 136 140 141 142 143 144 146 149 0
x 2 7 -9 -10 12 13 14 -18 -19 -20 -24 26 27 -36 -38 -39 40 -41 43 -44 -45 -46 47 -49 -50 -51 -52 53 55 56 -57 -58 60 -63 65 -66 -69 -71 -74 -75 76 77 -78 81 -82 -83 -84 86 -88 -94 95 -97 98 100 103 -107 -108 109 110 111 112 -113 -115 116 -117 118 -119 -122 123 124 125 126 -127 -128 133 -134 -135 136 -138 139 141 150 0
x -4 5 -6 7 -11 -15 16 17 -23 24 32 -34 35 -36 -37 38 -41 -44 45 -48 49 50 -52 53 -56 -57 60 64 65 -66 67 -68 70 75 80 -81 -83 84 -85 -86 -87 -89 -93 94 95 -100 -101 102 104 -106 107 -108 109 110 111 -112 -113 -114 -116 -117 -118 119 120 -121 122 -123 124 127 -128 -129 130 131 133 134 -135 136 137 139 149 0
x 1 -3 5 7 8 9 -10 -11 -12 16 20 -21 22 23 -27 30 31 32 -33 34 -37 -40 41 -43 44 -45 47 -51 -53 56 -57 -59 -60 61 62 -64 -69 -70 -73 -74 80 -83 84 89 -90 92 95 97 -99 100 -103 104 109 111 112 -114 -117 120 121 -123 128 129 -133 134 135 -136 -140 142 -144 149 0
x 5 -7 9 13 -15 -20 -21 -22 -27 -28 31 -32 -38 -39 43 -44 46 48 -49 51 -54 55 -57 58 59 -64 -69 71 -72 74 75 -77 78 79 81 83 84 -88 -92 -93 -95 -96 98 99 100 -102 -105 -106 107 -108 109 110 111 -112 113 -116 -117 -125 131 134 137 141 -142 -143 144 -146 147 149 0
x -1 2 -4 -9 10 15 -17 18 25 -27 28 -32 -36 -38 39 41 -42 -47 48 52 -54 -56 -57 -60 -62 63 -64 65 66 68 -69 70 74 75 -77 78 -79 -83 84 -85 -86 -88 -89 95 97 -98 -101 -102 -103 107 -109 -110 111 -112 -113 115 116 -118 119 123 -124 -127 128 129 -131 132 -133 134 -135 -138 -139 -141 -143 -144 -146 -147 -148 149 0
x 1 3 4 5 7 -8 9 -14 17 19 -22 -23 24 -26 -28 -31 32 -34 -36 -39 41 -44 -48 -52 53 57 -58 59 61 62 -63 -64 -66 -67 72 73 74 -75 77 78 79 -80 81 82 -87 -90 92 -94 -101 -103 104 105 -106 -107 -108 110 111 112 114 -115 -117 120 -123 -127 129 -130 132 -133 -134 138 139 140 142 -143 145 146 -148 -149 0
x -3 -7 8 -9 10 11 -13 15 17 19 20 21 -26 29 -33 37 39 40 43 -45 46 47 -52 53 58 -59 60 -64 -65 -66 -67 69 70 71 -79 -80 -84 -85 -88 -90 -92 96 99 -111 -112 117 -119 -121 123 124 125 -126 -133 -135 -137 138 -139 -141 142 143 -144 -148 -149 0
x -2 -8 9 -10 -12 -18 19 20 22 -23 -25 -26 -29 33 35 -38 -39 -42 46 47 -50 -51 52 55 56 -59 62 -63 68 70 -71 -72 73 75 78 -79 -82 -85 -86 87 88 90 -94 95 96 97 98 99 -102 -108 -109 111 112 -117 119 -121 -124 126 128 -129 138 -140 -141 142 -143 -145 -146 147 149 0
x 2 4 -5 -6 7 9 -12 -15 -16 -17 18 -21 22 24 -25 26 28 -29 30 31 -32 -33 -35 36 -37 39 -43 44 45 -47 -48 49 -50 53 54 -55 -56 -58 -59 60 63 65 -66 -68 -69 -72 74 76 -79 80 81 82 -83 85 86 -90 91 -92 -94 96 98 100 -101 102 103 106 -109 -110 -111 113 -114 116 -118 -119 120 -122 -125 126 -128 -129 130 -132 -133 135 136 -137 138 140 -141 143 -144 -146 148 0
x 1 -4 -5 -6 -7 8 -9 11 12 17 -18 19 20 22 23 24 27 -29 -37 48 -52 -53 -57 62 -64 73 -74 84 85 86 -87 89 90 -92 94 -96 -98 101 105 -107 108 -110 -112 -118 -121 123 124 -125 -127 128 -134 135 139 -140 -141 144 -146 147 -148 0
x 5 -6 -8 9 10 -16 17 -19 -21 -22 -24 25 -28 31 34 -35 39 40 42 -43 44 46 47 50 -51 53 -54 57 60 69 70 -73 76 -78 79 -81 -82 -86 90 -94 98 100 -101 102 -103 104 -105 -106 -108 109 -113 114 115 -118 119 120 -122 -124 -128 136 -137 -142 -143 144 -145 -150 0
x -1 5 -8 -9 10 -13 -14 -15 16 18 -19 20 -21 -22 -24 -26 -28 30 38 40 42 -47 -48 -49 -51 54 -57 -58 -63 64 -67 69 72 -77 -79 81 83 -84 -85 -86 87 -93 -94 95 97 -101 -102 -103 -106 109 -112 116 117 122 123 125 126 -127 129 133 134 -136 -138 -140 141 -143 -145 -150 0
x -1 -2 -5 -6 8 -9 11 12 -14 15 16 -17 -18 19 20 -22 -24 -26 -28 -30 33 37 39 -42 44 -46 -47 -50 55 57 -59 61 63 64 66 -70 -72 -73 -75 -77 78 -80 82 84 -85 87 -90 -91 -92 -93 -94 99 -101 104 -106 -108 110 -112 115 117 118 -119 121 -131 -132 133 134 135 -137 -139 -140 141 -144 -145 -147 -150 0
x 1 5 -6 7 8 -14 15 -17 18 19 20 22 -23 -26 30 -32 -33 36 -38 40 41 42 43 45 -46 50 51 -52 -54 -56 -57 60 61 -62 64 -65 66 67 -68 69 -72 -73 -74 78 -79 81 82 83 -84 85 -86 87 88 -89 91 92 -93 94 101 -102 105 -107 -109 -110 -113 114 115 -116 -117 120 122 127 129 130 -131 133 134 -135 -136 137 -138 141 144 -145 147 -149 -150 0
x 1 -4 5 8 10 -11 12 13 15 -16 18 -19 -20 23 25 -27 -28 -31 -33 -34 35 -39 40 -42 43 48 -49 51 -53 -55 -56 -61 62 63 65 67 -69 -70 -72 73 -75 80 -82 83 -84 87 -88 90 94 -95 -97 98 -103 106 108 110 -115 -116 -117 -118 -119 121 122 -123 128 130 -131 132 -133 -134 135 -136 137 139 -141 -143 -147 148 -149 150 0
x -2 3 5 -6 -9 -12 -16 17 18 -19 -22 -24 30 31 -33 -34 -37 -38 42 43 45 -46 48 50 -51 54 55 56 -57 61 -63 64 -66 -67 68 -69 71 77 81 -82 -83 84 85 -87 -91 94 -95 -96 97 100 -102 103 -105 106 -110 -111 -112 -115 -116 -121 -122 -123 124 126 -127 -128 129 131 133 -135 137 140 -141 143 144 -146 -147 148 -149 0
x 3 5 -7 10 -14 -15 -16 -17 -20 -21 -22 28 -29 -31 33 -34 35 40 -42 43 -45 -47 -50 -57 58 59 -63 -65 66 -67 -68 -70 71 -72 75 77 -79 -82 83 88 90 94 97 -99 -104 -108 110 113 -114 -116 119 -121 124 -126 -127 128 -129 -130 -131 -132 133 139 140 141 142 143 -146 -147 -150 0
x -2 3 -4 -6 -7 10 11 12 16 -17 -18 -19 -20 22 -23 -27 -29 -30 31 -32 33 -35 -39 40 41 42 -43 45 46 48 52 53 -54 55 60 -64 -65 -66 68 -69 75 -76 -84 -85 -87 -90 -94 -95 99 101 103 -109 110 111 -112 -117 118 119 -123 125 -130 -132 -134 -135 -137 -141 -142 -143 146 -147 149 0
x 1 -2 -5 -6 -7 -8 -9 -12 13 14 15 -16 20 -23 -26 -28 -29 -32 -34 -37 38 39 47 -48 -49 51 -54 -57 58 -60 -61 62 64 -65 -68 -69 70 -71 -72 73 -76 -77 -79 80 -81 -82 83 84 -85 -86 -87 -89 91 -92 -93 -95 -96 97 -103 -105 106 -108 109 110 116 117 118 -119 123 -126 -127 -128 129 131 -134 -136 143 144 147 0
x -4 5 -7 -10 12 16 20 -22 -23 26 27 28 31 33 -36 -38 -39 40 44 50 -51 53 -58 -59 -60 61 64 67 -68 -71 -73 -78 80 -82 83 85 -86 89 90 93 94 95 96 101 103 106 -107 109 -112 114 118 -120 -125 -127 128 131 132 134 -139 140 142 143 -144 -145 -146 -149 0
x 1 3 4 6 7 -9 -11 -12 -13 -14 15 16 -17 18 19 -22 24 25 -26 31 -32 33 38 40 -45 -46 -47 48 54 55 57 59 61 -62 -65 68 69 70 -71 73 74 75 -76 -81 82 83 -86 87 -89 -91 -92 94 95 -96 97 99 -100 101 102 103 104 -106 107 109 -111 -113 114 -115 -118 120 -121 122 123 124 125 127 128 -130 -133 134 135 137 -138 140 -142 -144 -148 -150 0
x 1 -2 4 6 7 9 -11 12 13 -14 15 16 -17 -18 -20 -21 -26 29 33 36 40 41 -45 46 47 -48 51 -55 58 -62 -63 -67 71 72 -73 -75 77 82 -83 84 85 88 -89 -94 -97 -98 -100 -103 110 -111 113 115 -119 -122 125 126 -129 130 -132 -135 -136 -139 140 -141 144 149 -150 0
x -3 9 -11 -14 -17 -22 24 -26 27 -28 -33 34 35 -37 -41 -43 44 45 -48 51 -52 -53 -56 -61 63 64 65 -67 69 -70 -71 72 73 -74 79 81 -82 83 84 86 -87 88 89 -93 94 -95 96 97 99 100 -101 -103 -104 105 106 107 -108 111 112 -115 -116 -118 120 122 123 124 125 126 127 -128 -129 -130 -131 -132 133 134 139 140 -141 149 0
x 5 -7 -8 9 -15 16 -17 -18 20 -22 -24 25 -27 30 -32 35 37 42 -43 44 46 50 53 -55 56 -57 61 -64 -66 67 -68 69 -74 75 -78 -81 -84 87 -88 -89 -90 -91 -93 94 -95 98 105 107 -109 -110 -111 -113 114 -115 -117 118 124 -126 -130 -131 137 -138 -139 -141 -142 -147 -148 -150 0
x 2 5 10 14 -15 17 18 -19 -20 23 24 25 -26 -29 35 37 -38 -39 -40 -43 -44 47 -49 50 51 52 -54 55 -56 57 58 -61 -63 64 -65 66 -67 68 70 -73 74 77 78 -84 85 86 88 -89 -91 -94 -95 96 -97 -98 -99 100 -102 105 -109 111 112 113 -115 -116 117 118 119 -121 -126 127 129 134 -141 143 144 -146 -148 149 -150 0
x 1 2 -3 -4 6 -8 -9 10 11 -12 13 -14 -16 -17 -18 -19 20 -21 -22 -23 -25 27 -30 32 -33 35 -36 37 38 -39 -42 -43 -46 47 -48 -49 -50 53 -56 59 -61 -62 63 67 -70 71 73 -75 -76 77 -82 83 84 -85 -88 92 93 96 104 105 108 -111 -113 -115 -117 -121 -122 124 -125 -126 -128 129 -133 134 138 139 142 144 -146 -149 0
x -1 2 5 -7 -8 11 12 13 14 -15 16 -18 19 -24 -25 -28 -32 -33 34 35 -36 37 38 39 44 -45 46 47 -48 49 50 -51 53 56 -59 -63 -69 71 -72 -75 -77 83 85 86 -87 88 90 91 96 -97 100 101 102 103 -104 108 112 -113 -117 121 122 123 125 127 -128 -129 131 133 -135 -136 138 -141 143 -145 -148 -150 0
x -2 3 -5 7 -8 10 11 -12 -14 -19 20 28 32 -34 35 -37 -39 40 41 -43 47 51 -52 54 -56 -65 67 72 73 74 77 -78 80 82 84 85 86 -87 -90 -91 -92 -93 95 96 -98 100 102 105 106 110 -111 112 -114 115 -116 123 -124 -125 -126 128 130 132 134 135 -136 137 -138 139 -140 142 143 -146 -150 0
x -1 2 3 7 -9 11 -14 -15 -16 -19 -21 22 -23 29 30 31 -32 -33 -36 -40 41 -42 -43 44 -45 -46 -47 51 52 -53 54 55 -56 58 61 -62 -63 -64 65 -66 -68 70 -72 79 81 82 83 88 -89 -92 -94 -95 -100 -101 -102 103 -104 -108 110 113 115 -118 121 -122 126 128 129 -130 133 137 -138 -139 142 -143 -146 -149 0
x 3 7 -9 10 11 12 13 -15 -16 17 -18 19 -21 24 -29 30 -32 34 -37 38 39 -45 47 50 52 -53 54 -55 56 58 60 67 70 71 72 73 -75 79 -81 -83 -84 -89 -92 93 -94 -99 100 101 -102 103 -107 -110 114 -117 -118 -120 -121 122 123 124 126 128 129 130 -131 135 -137 138 139 140 141 142 -145 146 -147 -148 0
x 1 3 4 -6 -10 11 -12 13 -14 15 17 -18 -20 -21 -24 26 -27 -30 33 34 -35 -36 -38 42 43 44 -45 -46 48 -49 50 -51 59 60 61 -62 -64 65 68 69 -70 -71 72 73 -74 -76 -77 -78 -80 -81 -84 85 87 -89 90 93 95 99 -101 -103 108 -109 -114 116 118 -119 -121 -122 -123 -125 -127 -128 129 -133 -136 138 139 -142 144 145 -146 148 0
x 4 -7 8 -9 10 13 15 -16 19 -21 -22 -23 27 28 30 -33 34 35 -41 45 -49 -50 -54 -56 -58 59 -60 62 64 66 68 -69 -71 72 -73 -76 -77 78 79 80 -83 -90 91 92 93 95 -98 99 -100 -102 -103 -106 108 110 -114 -118 -120 125 -126 127 -128 130 133 -136 140 -141 -144 -148 0
x 1 2 -4 -7 9 -12 -15 -16 17 18 -20 -21 23 24 -26 27 28 30 -31 32 33 -34 -37 -39 -41 42 44 -45 47 49 -52 -53 -57 58 60 -64 66 -69 72 73 74 77 -78 -79 -80 81 82 84 -88 89 90 -92 95 -96 97 -99 -101 102 -103 104 -105 -108 -112 -114 116 -117 119 123 125 126 127 -128 -132 134 135 136 138 -140 141 142 -144 -147 -148 150 0
x 2 4 6 10 -11 -13 -15 -16 18 19 -20 23 25 28 -30 -32 34 35 -38 -40 -43 45 -48 49 -50 51 -53 55 58 -63 64 66 70 -71 72 73 81 83 -84 -87 -91 98 100 105 106 -109 111 -113 -118 119 -121 122 123 124 125 127 -128 -129 131 -135 -136 -137 -139 -140 142 -145 0
x -1 4 7 -8 9 10 -11 12 -21 23 -24 26 -28 29 31 -32 -34 -37 -41 42 -43 45 47 49 51 52 54 58 66 -67 -68 -70 72 76 77 78 80 -82 85 -87 -89 -91 92 -98 -99 101 104 105 -106 107 109 -111 112 -113 -117 -118 120 -125 127 -128 -129 -132 -133 138 140 -142 -148 149 0
x -3 6 -11 -12 13 -16 17 20 21 -23 24 -25 26 -28 31 32 33 34 -35 -38 40 -41 -43 -45 -51 54 -57 -59 -60 -62 -63 64 68 70 -71 -77 78 -79 -82 83 84 -86 88 -89 -95 -96 -97 -99 -101 -102 -103 -104 106 -108 -110 -118 119 120 123 -124 -125 -126 -127 -128 129 -132 133 134 -135 -138 139 141 -142 -143 -146 147 -148 -149 0
x 2 -7 -8 -9 -11 12 -13 15 19 -21 23 -24 25 -27 28 30 -31 -35 -41 -43 -45 46 50 -52 56 57 59 -60 -61 67 69 -71 -72 -74 75 -82 84 88 89 -91 -93 -95 100 -101 102 -103 -104 -106 -107 -108 -111 112 117 118 119 121 -122 -123 -125 126 127 128 131 135 -138 -143 -145 147 -149 -150 0
x -3 4 -6 8 -9 -13 15 -16 18 19 20 21 25 26 -29 32 -33 -34 36 -38 -39 -40 -41 42 43 -44 -48 50 -53 55 -57 -63 64 67 -68 -70 71 74 76 77 79 -82 86 -88 92 -94 101 -103 104 -109 -113 115 -116 117 118 -120 121 -122 123 -124 -125 128 129 -130 131 -132 133 134 135 140 -143 -145 -146 -147 -148 0
x 3 5 7 8 -10 -11 -12 -13 14 -16 19 -22 -23 28 -29 30 34 -35 37 39 -41 -42 -45 -47 48 -50 51 55 -56 -58 -59 60 -61 -63 64 65 67 68 -70 -72 -74 -77 78 79 83 89 -95 -101 102 -103 -106 107 110 -111 112 114 -115 -116 -117 -120 123 126 -129 133 -134 135 140 -141 146 149 -150 0
x -4 5 -8 9 -10 -11 -12 -14 -18 20 21 -25 -27 -29 31 34 38 -39 40 42 -45 46 -48 -50 51 -54 55 -56 -58 59 60 64 66 68 -69 70 73 -76 -78 79 80 -81 -82 84 85 -87 89 92 93 -94 95 -96 98 102 -103 107 -108 111 -112 -113 -115 -116 118 -119 -120 129 132 135 -138 140 -141 145 -148 0
x 2 -3 7 12 -13 -14 -16 18 -20 22 23 -25 -26 -27 29 -30 -31 -33 -34 36 37 -39 40 -43 -44 -46 47 48 52 -54 -55 -56 -57 -59 -61 64 65 67 68 71 -74 75 -76 77 78 80 -81 82 83 84 86 87 -88 -90 -94 95 96 -99 101 -102 103 -104 106 107 109 112 113 -114 -116 117 120 121 123 124 -127 128 130 135 139 143 144 145 146 0
x -1 4 5 -10 15 17 -20 -21 -22 -23 25 -26 27 -29 32 -35 38 -40 -42 -43 45 -47 53 54 -55 -56 -57 59 -60 -62 -63 -64 67 -69 -70 -71 74 75 -77 -80 81 82 -84 -85 -86 87 -88 -89 91 92 -93 94 -95 -97 -98 99 -101 102 -104 -105 110 -111 -113 114 115 116 -119 -120 -121 122 -124 -125 -127 128 -131 -136 -137 -144 -147 148 149 0
x 1 -2 -3 -5 -6 8 -14 -16 -17 -18 -20 22 24 25 27 28 -31 32 34 36 -37 38 39 41 -42 43 44 -46 53 -54 -57 58 60 -61 -63 65 66 -67 -68 -69 -71 -74 -75 77 79 -80 83 84 -85 88 89 -90 92 95 -96 -99 -101 -104 105 -110 111 114 115 -116 -118 -119 -120 122 124 -126 -128 -130 -131 132 -133 -134 135 -139 142 -143 144 145 -146 -148 -149 -150 0
x -1 -3 -4 5 6 -7 8 -9 15 16 -17 -18 19 20 -21 -22 23 -24 -26 27 -30 -35 -37 -42 44 -47 48 52 -55 57 58 -60 -61 -62 63 64 -65 -66 -68 -69 70 71 72 -82 85 -92 94 95 -97 98 99 -104 -105 -108 109 110 -113 117 -122 -124 126 133 135 137 140 142 -144 146 147 149 0
x 4 5 6 7 10 -11 -12 14 -15 16 -19 -22 -23 27 -28 -29 -31 -33 -36 37 -38 -40 41 -42 -48 49 -52 53 54 55 58 -59 60 61 -62 -64 68 -69 71 73 -74 -75 76 80 -84 86 89 -90 91 -92 -93 97 -100 101 -102 104 108 111 -114 -115 -116 119 -120 121 123 124 127 -128 131 -132 135 -136 137 138 -139 144 145 -146 147 150 0
x -2 6 7 11 -12 -17 19 -20 -21 -27 29 30 34 -35 37 -39 42 -43 -45 46 47 -51 -53 54 -56 59 64 -65 -66 68 70 71 -72 -74 76 -77 79 -80 -84 -88 -89 -91 -93 -94 -99 101 103 104 105 -106 107 -108 -109 -110 115 116 -117 119 120 -121 -122 -123 -125 -128 -130 131 -132 134 136 138 -139 140 -144 145 147 -148 149 0
x -1 -2 -5 7 -9 -10 -15 17 18 -19 20 -27 28 31 35 36 37 38 41 -43 44 52 53 -58 -59 -68 -70 -71 -72 73 74 77 78 79 83 -85 86 -90 -91 -94 -98 -100 104 -106 110 -114 115 117 120 121 -123 -127 128 130 -133 -134 -138 141 -142 -143 146 -148 149 -150 0
x 4 -8 -9 12 -17 18 22 24 25 26 31 -32 -33 34 35 -36 38 39 -40 -44 48 -49 -50 -51 -55 56 57 59 60 63 64 -65 -68 -72 -74 -76 77 78 -79 80 -81 85 -93 -99 -102 105 108 -112 -116 -117 119 -120 121 -122 -125 -127 -129 -133 -135 -138 -142 -143 -146 -147 0
x -1 -2 4 -5 -6 7 -10 11 -12 13 14 -19 -20 21 -22 -23 25 -26 -27 30 -32 33 -38 -43 44 -45 46 47 -49 54 -55 61 -63 -68 -69 -75 77 82 83 87 91 92 -94 95 100 -103 -105 106 107 -108 109 -111 112 113 114 117 -119 -122 124 -126 127 131 -133 134 136 -137 138 -141 -144 -148 -149 0
x -1 6 10 -11 12 16 17 18 21 22 26 27 29 31 -32 -37 39 40 41 -42 -45 -47 -49 -51 52 54 -59 -61 -63 70 -72 76 -77 78 -79 -80 83 -84 86 -87 -88 90 91 92 -93 -96 -97 98 -99 101 -103 105 112 114 117 124 127 128 -129 -131 -137 -140 -141 -142 -145 -146 149 0
x -1 -2 -4 -6 -7 -9 -11 -17 -19 20 21 23 -29 32 -33 36 -37 38 43 44 46 -47 -48 49 51 54 -55 56 -57 -59 -64 65 66 -67 68 70 -71 72 73 75 -76 -77 79 84 -85 -86 -87 88 89 90 91 92 93 95 -98 100 -101 -103 104 -105 -106 -108 -112 113 -116 -120 123 124 129 133 134 135 136 -137 -140 141 142 -148 -150 0
x -4 -7 9 -11 12 -14 -15 17 -20 -23 -24 25 27 -28 29 -33 -35 36 -37 38 -39 -41 -42 -43 -47 48 -50 51 52 54 55 -58 62 63 66 -68 -69 -70 -73 74 77 78 80 -82 -83 84 -85 90 92 96 -100 -101 -104 107 108 -116 117 119 120 122 -123 124 125 -126 127 -130 132 -135 137 139 -140 -144 -145 -146 -150 0
x 1 3 5 -6 9 10 -11 -13 14 15 -17 18 -20 24 25 28 30 -31 32 33 -35 -39 41 42 43 44 -45 47 -50 52 -57 59 -60 62 66 -68 69 -72 -75 -76 77 -78 -79 82 83 -85 -87 -88 89 -91 92 -94 97 -98 100 -103 104 105 107 108 -109 111 113 117 118 119 -120 124 -126 -127 -129 133 -135 136 -137 -138 139 -140 -142 -143 144 145 147 149 0
x -1 -3 6 7 8 -10 14 -16 17 18 19 -20 -21 -23 24 25 -27 29 30 32 -35 39 -40 41 -43 45 -46 -47 51 52 -53 -54 59 62 63 -66 68 70 -71 73 -75 77 -78 -79 -80 82 -83 84 86 88 89 90 -92 -93 -94 96 -97 99 100 101 104 105 106 107 109 -110 114 116 -122 123 -124 -126 -129 -131 134 -137 139 140 -141 -142 143 144 146 149 0
x 1 -2 -4 -5 -6 7 11 12 -13 14 15 16 18 -19 -21 22 23 -24 -25 30 35 37 -46 47 -49 51 55 58 -61 -62 64 65 66 -67 -70 72 -73 74 -76 77 -78 -79 82 -83 -84 -87 89 90 -92 94 96 -97 -99 -100 -101 103 106 107 -108 109 110 112 -113 114 -116 -119 -120 -121 -122 123 -124 125 -126 135 -136 -139 -140 141 -143 -144 149 150 0
x 2 -3 -5 -9 -10 13 -17 18 -23 28 29 -34 35 37 39 43 44 -47 -49 51 -52 -53 -58 61 -64 -65 -67 -71 -72 74 -75 76 -78 -79 -80 -81 -84 -87 -88 -89 90 -92 -95 96 -100 -104 -105 -106 107 -108 111 112 -115 -116 119 120 -123 -127 129 -130 135 136 138 139 -140 141 -146 147 150 0
x -1 2 -3 -6 -8 12 -13 -14 -16 -20 -23 24 25 28 29 -31 -32 -33 -45 -50 -56 57 -58 59 60 61 66 72 -73 74 -76 -79 81 -82 -83 85 86 87 -92 95 99 -101 -103 -105 106 107 -109 -111 114 120 -121 -122 126 128 -130 -131 -132 -134 138 -139 -140 141 -143 144 146 148 149 150 0
x -1 2 3 -4 11 12 -17 18 -19 20 -23 -27 -28 -29 -30 33 35 36 -40 43 48 -50 -51 -55 57 59 60 62 63 -65 66 -72 -73 74 -76 77 -80 -81 -84 85 -88 -90 93 95 -97 99 101 -102 103 -104 105 107 -109 114 119 122 -123 124 -125 -126 129 -130 -131 -132 133 135 139 145 -147 148 0
x 2 4 5 -6 8 9 -11 -12 16 -17 20 -21 22 24 -25 32 33 34 37 -38 -40 46 -47 -50 51 -52 53 54 -55 -57 58 -60 62 -64 65 -66 67 68 -74 -75 76 -77 79 82 -84 -85 -86 -87 92 93 -94 95 -97 98 99 -100 -101 103 104 107 -109 -112 -113 -116 -118 119 -123 -124 125 -126 -127 -128 -132 -133 -134 136 139 -140 -142 147 148 150 0
x -1 -2 -9 11 13 18 -20 -24 -25 -26 -27 -28 -30 31 -32 34 -38 -39 44 45 46 -48 50 -51 54 -55 56 -57 60 63 64 65 -72 -75 76 -78 79 -81 -82 85 -86 -87 -88 90 -91 -92 -95 -96 -97 98 -99 103 105 107 -109 -110 114 -116 117 119 -120 121 -127 130 -132 135 -136 -137 -139 141 143 149 -150 0
x -1 2 -3 4 8 11 -12 15 17 20 21 -22 24 28 31 -34 39 41 46 -47 49 -50 51 52 -54 -57 -58 -60 -61 -63 -64 -65 66 70 71 -74 -80 82 -83 85 87 88 90 94 96 -97 -99 100 102 -103 -104 108 112 119 122 124 126 127 -132 134 -135 139 142 -143 144 -145 146 147 -149 150 0
x 1 -2 4 -7 8 -10 -11 16 18 -19 23 -25 -26 -27 28 33 35 36 -37 42 44 45 46 -49 50 52 -53 -54 -57 60 61 -62 -63 64 -67 -68 -69 -70 71 72 -73 75 -77 78 -79 80 83 84 85 -89 -90 92 95 -96 98 -99 -102 -103 104 105 107 -108 -111 114 -115 -116 -122 127 133 134 141 143 144 146 -147 -148 149 0
x -1 2 -3 4 -6 -7 9 -10 12 15 16 -19 20 -22 -23 -25 -26 -27 34 -35 -39 40 -41 -43 45 -47 -48 52 -53 -54 -55 57 -61 -62 63 -66 -67 -68 70 -71 -74 -76 -78 -83 -84 85 -86 87 88 89 93 95 96 -97 -98 -101 -103 110 111 115 -116 118 120 121 123 124 -125 126 127 128 -130 -131 135 -136 139 142 -143 -144 -145 146 147 -148 0
x 4 -6 -10 12 15 16 -17 -18 19 21 -23 24 -25 -29 -31 -33 -34 37 -39 -40 44 45 46 -47 -48 49 50 51 53 -54 -56 57 -58 60 -63 64 -68 -69 -76 -77 79 83 86 -88 -89 90 91 95 -96 -97 99 -101 103 106 108 109 110 112 -113 114 115 -116 118 119 120 -121 -122 124 128 129 -131 133 134 -138 -139 141 -142 -146 -148 149 -150 0
x 4 -7 9 -11 14 15 -16 21 -23 -29 -35 -36 40 -41 42 44 45 -46 47 50 -51 52 -53 56 59 60 63 65 72 -73 74 -81 83 86 87 -89 -90 91 -92 -95 -97 98 104 108 -110 -111 112 -113 -117 118 119 -120 -121 123 126 127 128 130 -131 -135 -136 137 139 140 145 -146 147 -148 -149 0
x 3 -5 10 13 -14 15 17 18 20 -23 -24 -25 -26 30 -31 -34 35 -36 40 41 42 -44 -46 -47 48 49 50 -52 -53 -58 61 62 66 -67 68 69 70 71 73 76 -78 -79 -80 83 85 88 90 92 -93 97 -103 104 -105 106 -107 111 -112 -125 -126 -127 -130 -131 132 -133 -135 136 137 -140 141 -142 146 147 150 0
x 1 2 -5 -7 14 -16 -17 -20 22 -23 -25 -28 29 -30 32 33 39 -41 45 -50 51 -54 55 56 -57 -58 59 60 61 62 63 -67 68 73 -74 75 -81 -82 84 -85 89 -102 105 106 -109 -110 111 -115 116 117 -118 123 126 -127 -133 -134 -135 -136 137 138 143 -145 -147 -150 0
x 5 11 -17 18 -23 -24 25 -27 -28 30 31 34 35 36 -38 40 -43 -45 -47 50 54 55 -56 -59 60 -61 -65 66 69 -70 -71 73 74 -76 77 -78 -79 -80 81 83 -89 90 -92 -93 98 99 -100 105 107 109 110 111 -112 113 -115 -116 -118 -124 -126 128 129 132 -136 139 142 -145 -149 -150 0
x 1 2 3 -6 -7 -8 9 -10 -11 13 15 17 18 19 -20 -23 25 26 27 29 -30 -32 -34 39 -40 -44 45 -48 -49 -51 53 -54 -56 57 62 63 -71 -73 -74 78 82 -83 -84 -87 90 91 -96 -97 -98 -101 -105 106 108 109 110 111 112 113 -115 120 123 -125 -126 -132 133 -136 -137 -138 139 141 142 -143 148 -150 0
x 1 2 -4 -7 10 11 12 -13 16 -18 -20 -22 -23 24 25 -26 31 32 34 -36 37 -40 -41 -42 -46 48 51 53 56 -57 -60 61 -63 64 65 66 -67 69 70 71 72 75 76 -79 82 83 85 -90 93 95 96 -97 102 104 -105 106 107 -108 109 -110 112 -114 -118 119 120 -124 -129 130 132 133 -134 136 138 -139 140 -141 142 144 147 149 0
x 1 -7 9 10 11 13 15 16 -20 -22 23 -26 -27 -32 37 38 41 43 -46 48 51 -55 -56 -57 59 61 -62 -65 -70 71 -72 73 74 75 76 -77 -79 84 -86 -87 -89 -92 97 98 -99 101 103 -104 107 108 110 113 -115 116 120 -124 -126 -129 130 131 -133 140 -142 145 -149 -150 0
x 1 2 -3 10 13 15 -18 19 20 23 -25 -26 -27 29 31 -35 36 37 -41 -45 46 47 -48 49 51 -55 57 -59 -60 -61 62 64 -68 -69 -71 74 -75 77 78 79 -80 82 -83 -84 -87 -89 -91 92 -93 94 -97 -98 -99 -100 103 105 -106 -107 108 -109 -110 -113 -114 115 -116 117 120 -126 -127 129 130 131 132 135 -137 -138 139 -141 -143 -144 145 -147 -148 0
x 7 11 -13 -14 -15 17 -18 19 23 -26 -27 30 31 32 33 -34 -41 -42 -43 -45 46 -47 48 50 51 -52 56 57 58 -59 61 63 64 65 -66 68 75 -76 77 80 81 84 90 -91 -92 93 -94 96 -97 100 103 104 -106 107 -108 109 -114 116 -117 -119 120 121 125 127 128 129 130 -131 132 133 134 -135 136 -137 -138 -139 140 142 144 145 -146 -147 -148 -149 -150 0
x -2 -3 -4 5 -6 -7 10 11 12 17 -18 -19 -22 23 25 27 28 -29 30 32 37 40 -41 -43 44 -47 48 -50 52 53 -54 -56 60 61 69 70 -71 72 74 77 -79 82 83 -86 -89 -90 -91 93 94 -96 -97 98 -104 -106 -109 110 111 113 -116 -117 118 120 -122 -123 124 127 128 -129 130 132 136 -140 -142 145 -149 0
x -1 2 5 -8 -11 12 13 -16 18 -21 22 -25 -26 28 -38 40 43 44 47 48 49 51 -54 55 58 60 -61 -63 64 -65 66 69 70 71 72 -73 -74 -76 -79 -80 81 84 -86 -87 -88 89 -92 -93 94 98 -99 -102 104 -106 112 113 -114 -116 -118 -123 -125 129 -131 133 135 136 -138 139 -140 -144 -145 147 -148 0
x 1 2 4 -5 7 -8 -9 -10 12 -15 17 22 23 -25 26 -33 34 36 37 38 41 -43 -48 49 51 52 54 56 -59 -61 64 -66 -68 -69 -72 73 -74 -75 -76 -77 80 -81 86 91 93 94 -101 103 104 -105 -106 -107 109 -110 -111 112 -114 116 118 -120 -122 123 -124 -126 128 -132 135 140 -142 -143 -144 145 -146 -147 -150 0
x -1 -2 4 5 -6 7 9 -11 14 21 22 23 25 28 -29 30 -34 38 39 -44 45 -46 -47 48 -54 -55 -56 58 61 65 68 70 72 -80 -81 82 83 -87 -88 89 -90 91 -93 -95 -96 99 102 -103 104 105 -106 -107 -115 -116 117 -120 127 -128 129 -131 -135 136 141 -143 144 145 146 147 0
x -3 -9 -12 16 18 19 22 24 25 -28 -30 31 32 34 -35 -36 38 -40 43 -45 46 -48 49 50 52 -54 -56 57 -63 64 67 -72 -74 -77 78 -80 -81 83 84 85 86 87 88 -89 -92 -94 -95 -97 -98 99 -103 107 -108 -111 112 -113 114 -115 117 -121 -124 126 -127 -135 -138 -139 -141 145 -146 -148 150 0
